p cnf 75 273
4 3 0
4 3 0
-3 -4 0
-5 -3 0
-5 -4 0
3 4 5 0
-6 2 0
-6 5 0
-2 -5 6 0
3 1 -7 0
-3 -1 -7 0
3 -1 7 0
-3 1 7 0
8 -6 0
8 7 0
6 -7 -8 0
9 1 0
9 -8 0
-1 8 -9 0
-9 10 -11 0
9 -10 -11 0
-9 -10 11 0
9 10 11 0
12 13 0
-12 13 0
15 14 0
15 -2 0
-14 2 -15 0
-15 -3 -16 0
15 3 -16 0
-15 3 16 0
15 -3 16 0
10 -3 -17 0
-10 3 -17 0
10 3 17 0
-10 -3 17 0
-18 16 0
-18 17 0
-16 -17 18 0
-19 18 0
-19 10 0
-18 -10 19 0
20 -13 0
20 19 0
13 -19 -20 0
21 11 0
21 -20 0
-11 20 -21 0
24 -23 0
24 -3 0
23 3 -24 0
25 24 0
25 22 0
-24 -22 -25 0
-22 25 -26 0
22 -25 -26 0
-22 -25 26 0
22 25 26 0
27 23 0
27 3 0
-23 -3 -27 0
-28 -27 0
-28 -23 0
27 23 28 0
-29 3 0
-29 28 0
-3 -28 29 0
-12 22 -30 0
12 -22 -30 0
-12 -22 30 0
12 22 30 0
29 30 -31 0
-29 -30 -31 0
29 -30 31 0
-29 30 31 0
-32 -26 0
-32 31 0
26 -31 32 0
-33 28 0
-33 -4 0
-28 4 33 0
34 -33 0
34 3 0
33 -3 -34 0
-35 -24 0
-35 34 0
24 -34 35 0
24 -29 -36 0
-24 29 -36 0
24 29 36 0
-24 -29 36 0
-37 35 0
-37 -36 0
-35 36 37 0
-38 -32 0
-38 -37 0
32 37 38 0
-39 21 0
-39 38 0
-21 -38 39 0
41 -18 0
41 40 0
18 -40 -41 0
-42 -4 0
-42 27 0
4 -27 42 0
43 -41 0
43 -42 0
41 42 -43 0
43 -14 -44 0
-43 14 -44 0
43 14 44 0
-43 -14 44 0
9 44 -45 0
-9 -44 -45 0
9 -44 45 0
-9 44 45 0
46 -25 0
46 10 0
25 -10 -46 0
-47 7 0
-47 15 0
-7 -15 47 0
-48 46 0
-48 47 0
-46 -47 48 0
45 -48 -49 0
-45 48 -49 0
45 48 49 0
-45 -48 49 0
-50 42 0
-50 -18 0
-42 18 50 0
-51 28 0
-51 50 0
-28 -50 51 0
52 2 0
52 -6 0
-2 6 -52 0
-53 -51 0
-53 -52 0
51 52 53 0
54 -49 0
54 -53 0
49 53 -54 0
-55 -40 0
-55 33 0
40 -33 55 0
-56 33 0
-56 55 0
-33 -55 56 0
57 -6 0
57 -29 0
6 29 -57 0
-58 56 0
-58 -57 0
-56 57 58 0
59 -16 0
59 -55 0
16 55 -59 0
-58 59 -60 0
58 -59 -60 0
-58 -59 60 0
58 59 60 0
61 54 0
61 -60 0
-54 60 -61 0
-14 15 -62 0
14 -15 -62 0
-14 -15 62 0
14 15 62 0
64 50 0
64 29 0
-50 -29 -64 0
65 -3 0
65 -64 0
3 64 -65 0
66 63 0
66 65 0
-63 -65 -66 0
67 5 0
67 24 0
-5 -24 -67 0
10 -67 -68 0
-10 67 -68 0
10 67 68 0
-10 -67 68 0
69 66 0
69 -68 0
-66 68 -69 0
14 -17 -70 0
-14 17 -70 0
14 17 70 0
-14 -17 70 0
71 5 0
71 -70 0
-5 70 -71 0
72 -69 0
72 -71 0
69 71 -72 0
73 62 0
73 72 0
-62 -72 -73 0
-74 61 0
-74 -73 0
-61 73 74 0
75 39 0
75 -74 0
-39 74 -75 0
43 -64 0
-74 37 -65 21 57 0
-51 -60 41 16 68 0
-52 -66 -17 0
-20 -75 44 17 -12 0
-18 33 1 13 3 23 0
52 -12 41 -32 -10 0
75 59 -65 40 0
11 40 31 64 46 22 0
72 65 0
5 -55 -10 0
-8 45 -7 67 -30 0
34 -1 75 64 0
50 15 -64 -25 -46 34 0
65 -14 -15 -48 -71 0
-13 17 0
-47 -37 -66 -49 55 0
57 -32 -33 0
-18 -20 6 -47 29 -41 0
-63 -41 21 33 0
21 51 -50 -38 56 0
53 -52 18 68 21 0
-6 -73 -15 0
16 -74 54 59 -40 0
-63 -65 74 0
2 -49 -19 69 39 7 0
-55 24 0
-39 12 46 0
2 -71 69 52 -67 1 0
34 65 52 25 -69 -33 0
-55 31 -46 -50 36 0
-19 21 0
28 1 32 -30 26 0
-67 -54 69 11 16 37 0
41 -22 -30 -25 0
50 34 -29 -22 56 47 0
-7 49 -15 0
-13 -29 48 -67 0
38 63 -48 20 -6 0
7 53 -21 0
-51 54 32 -2 -12 0
29 -41 -17 -72 0
-2 -60 -19 0
-54 27 0
-17 -34 -31 15 -53 0
3 68 -52 0
-58 -2 0
51 59 0
-5 -64 -23 -35 -22 0
33 -51 62 0
1 59 -10 -62 75 0
28 -7 -73 0
34 -1 -23 39 -3 0
-62 61 -20 -21 45 0
50 52 0
-13 14 30 0
-38 46 48 0
-7 8 55 27 28 -4 0
33 -7 -53 -4 28 63 0
21 14 0
-1 -47 -50 -25 34 68 0
-51 -16 35 -2 22 0
-38 -67 -31 0
75 0
